10J3M/DAT/10J3MUTR-19.dat
10 3
45.2807 30.0097
28.111 45.1715
39.3194 47.8229
25.8462 43.2801
19.4977 0.1591
11.9939 5.6844
12.9854 31.6499
41.6513 38.3744
2.1279 47.737
21.4108 44.9696
83.7146