10J3M/SOL/10J3MUTR-19.sol
solution status: optimal solution found
objective value:                     76.8518833317178
x#1#1                                0.66635981773285 	(obj:0)
x#1#2                                0.33364018226715 	(obj:0)
x#2#3                                               1 	(obj:0)
x#3#1                               0.529708461822895 	(obj:0)
x#4#1                                               1 	(obj:0)
x#5#2                                               1 	(obj:0)
x#6#1                                               1 	(obj:0)
x#7#1                               0.851923709382384 	(obj:0)
x#7#2                              0.0967818782307135 	(obj:0)
x#7#3                              0.0512944123869019 	(obj:0)
x#9#2                                               1 	(obj:0)
x#10#2                              0.122967920153008 	(obj:0)
x#10#3                              0.877032079846992 	(obj:0)
z                                    76.8518833317178 	(obj:1)
